0 1896
1 1826
2 1799
3 1798
4 1766
5 1700
6 1567
7 1524
8 1524
9 1524
10 1524
11 1413
12 1413
13 1413
14 1413
15 1413
16 1413
17 1359
18 1359
19 1319
20 1308
21 1308
22 1308
23 1281
24 1250
25 1217
26 1217
27 1217
28 1217
29 1217
30 1217
31 1217
32 1217
33 1199
34 1199
35 1199
36 1198
37 1198
38 1170
39 1170
40 1170
41 1149
42 1149
43 1149
44 1120
45 1120
46 1120
47 1120
48 1115
49 1115
50 1101
51 1101
52 1101
53 1063
54 1063
55 1063
56 1063
57 1063
58 1063
59 1063
60 1063
61 1063
62 1046
63 1046
64 1046
65 1046
66 1046
67 1041
68 1025
69 1025
70 1025
71 1025
72 1025
73 1025
74 1007
75 1007
76 1007
77 1007
78 1007
79 1007
80 1007
81 1007
82 1007
83 1007
84 1002
85 1002
86 1002
87 998
88 998
89 998
90 976
91 976
92 976
93 976
94 972
95 969
96 966
97 966
98 966
99 966
100 966
101 966
102 966
103 966
104 966
105 966
106 966
107 966
108 966
109 964
110 964
111 964
112 962
113 962
114 962
115 949
116 949
117 948
118 948
119 948
120 948
121 948
122 948
123 947
124 947
125 947
126 947
127 947
128 947
129 947
130 947
131 947
132 947
133 947
134 947
135 947
136 943
137 943
138 943
139 943
140 943
141 943
142 943
143 943
144 943
145 943
146 929
147 919
148 919
149 919
150 919
151 919
152 919
153 910
154 910
155 910
156 910
157 910
158 910
159 910
160 910
161 910
162 910
163 910
164 910
165 910
166 910
167 910
168 910
169 910
170 910
171 910
172 910
173 910
174 910
175 910
176 910
177 910
178 910
179 910
180 910
181 910
182 910
183 910
184 908
185 908
186 906
187 906
188 906
189 906
190 894
191 894
192 894
193 894
194 894
195 894
196 894
197 894
198 894
199 891
200 891
201 891
202 891
203 891
204 891
205 891
206 891
207 891
208 891
209 891
210 891
211 891
212 891
213 891
214 891
215 891
216 891
217 891
218 891
219 891
220 891
221 891
222 891
223 891
224 891
225 891
226 891
227 891
228 891
229 891
230 891
231 891
232 891
233 891
234 891
235 891
236 891
237 891
238 891
239 891
240 891
241 891
242 891
243 891
244 891
245 887
246 887
247 886
248 886
249 884
250 884
251 884
252 884
253 884
254 884
255 884
256 884
257 884
258 884
259 884
260 884
261 884
262 884
263 884
264 884
265 884
266 884
267 884
268 884
269 884
270 884
271 884
272 884
273 867
274 867
275 867
276 865
277 865
278 864
279 864
280 864
281 864
282 864
283 863
284 862
285 862
286 859
287 859
288 859
289 859
290 858
291 858
292 858
293 858
294 858
295 858
296 858
297 858
298 858
299 858
300 858
301 858
302 858
303 858
304 858
305 858
306 858
307 858
308 858
309 858
310 858
311 858
312 858
313 858
314 858
315 858
316 858
317 858
318 858
319 858
320 858
321 858
322 858
323 858
324 858
325 858
326 858
327 858
328 858
329 858
330 858
331 858
332 858
333 858
334 858
335 858
336 858
337 858
338 858
339 858
340 858
341 858
342 858
343 858
344 858
345 858
346 858
347 858
348 858
349 858
350 858
351 858
352 858
353 858
354 858
355 858
356 858
357 858
358 858
359 858
360 858
361 858
362 858
363 858
364 858
365 858
366 858
367 858
368 858
369 858
370 858
371 858
372 858
373 858
374 858
375 858
376 858
377 858
378 858
379 858
380 858
381 858
382 858
383 858
384 858
385 858
386 858
387 858
388 858
389 858
390 858
391 858
392 858
393 858
394 858
395 858
396 858
397 858
398 858
399 858
400 858
401 858
402 858
403 858
404 858
405 858
406 858
407 858
408 858
409 858
410 858
411 858
412 858
413 858
414 858
415 858
416 858
417 858
418 858
419 858
420 858
421 858
422 858
423 858
424 858
425 858
426 858
427 858
428 858
429 858
430 858
431 858
432 858
433 858
434 858
435 858
436 858
437 858
438 858
439 858
440 858
441 858
442 858
443 858
444 858
445 858
446 858
447 858
448 858
449 858
450 858
451 858
452 858
453 858
454 858
455 858
456 858
457 858
458 858
459 858
460 858
461 858
462 858
463 858
464 858
465 858
466 858
467 858
468 858
469 858
470 858
471 858
472 858
473 858
474 858
475 858
476 858
477 858
478 858
479 858
480 858
481 858
482 858
483 858
484 858
485 858
486 858
487 858
488 858
489 858
490 858
491 858
492 858
493 858
494 858
495 858
496 858
497 858
498 858
499 858
500 858
501 858
502 858
503 858
504 858
505 858
506 858
507 858
508 858
509 858
510 858
511 858
512 858
513 858
514 858
515 858
516 858
517 858
518 858
519 858
520 858
521 858
522 858
523 858
524 858
525 858
526 858
527 858
528 858
529 858
530 858
531 858
532 858
533 858
534 858
535 858
536 858
537 858
538 858
539 858
540 858
541 858
542 858
543 858
544 858
545 858
546 858
547 858
548 858
549 858
550 858
551 858
552 858
553 858
554 858
555 858
556 858
557 858
558 858
559 858
560 858
561 858
562 858
563 858
564 858
565 858
566 858
567 858
568 858
569 858
570 858
571 858
572 858
573 858
574 858
575 858
576 858
577 858
578 858
579 858
580 858
581 858
582 858
583 858
584 858
585 858
586 858
587 858
588 858
589 858
590 858
591 858
592 858
593 858
594 858
595 858
596 858
597 858
598 858
599 858
600 858
601 858
602 858
603 858
604 858
605 858
606 858
607 858
608 858
609 858
610 858
611 858
612 858
613 858
614 858
615 858
616 858
617 858
618 858
619 858
620 858
621 858
622 858
623 858
624 858
625 858
626 858
627 858
628 858
629 858
630 858
631 858
632 858
633 858
634 858
635 858
636 858
637 858
638 858
639 858
640 858
641 858
642 858
643 858
644 858
645 858
646 858
647 858
648 858
649 858
650 858
651 858
652 858
653 858
654 858
655 858
656 858
657 858
658 858
659 858
660 858
661 858
662 858
663 858
664 858
665 858
666 858
667 858
668 858
669 858
670 858
671 858
672 858
673 858
674 858
675 858
676 858
677 858
678 858
679 858
680 858
681 858
682 858
683 858
684 858
685 858
686 858
687 858
688 858
689 858
690 858
691 858
692 858
693 858
694 858
695 858
696 858
697 858
698 858
699 858
700 858
701 858
702 858
703 858
704 858
705 858
706 858
707 858
708 858
709 858
710 858
711 858
712 858
713 858
714 858
715 858
716 858
717 858
718 858
719 858
720 858
721 858
722 858
723 858
724 858
725 858
726 858
727 858
728 858
729 858
730 858
731 858
732 858
733 858
734 858
735 858
736 858
737 858
738 858
739 858
740 858
741 858
742 858
743 858
744 858
745 858
746 858
747 858
748 858
749 858
750 858
751 858
752 858
753 858
754 858
755 858
756 858
757 858
758 858
759 858
760 858
761 858
762 858
763 858
764 858
765 858
766 858
767 858
768 858
769 858
770 858
771 858
772 858
773 858
774 858
775 858
776 858
777 858
778 858
779 858
780 858
781 858
782 858
783 858
784 858
785 858
786 858
787 858
788 858
789 858
790 858
791 858
792 858
793 858
794 858
795 858
796 858
797 858
798 858
799 858
800 858
801 858
802 858
803 858
804 858
805 858
806 858
807 858
808 858
809 858
810 858
811 858
812 858
813 858
814 858
815 858
816 858
817 858
818 858
819 858
820 858
821 858
822 858
823 858
824 858
825 858
826 858
827 858
828 858
829 858
830 858
831 858
832 858
833 858
834 858
835 858
836 858
837 858
838 858
839 858
840 858
841 858
842 858
843 858
844 858
845 858
846 858
847 858
848 858
849 858
850 858
851 858
852 858
853 858
854 858
855 858
856 858
857 858
858 858
859 858
860 858
861 858
862 858
863 858
864 858
865 858
866 858
867 858
868 858
869 858
870 858
871 858
872 858
873 858
874 858
875 858
876 858
877 858
878 858
879 858
880 858
881 858
882 858
883 858
884 858
885 858
886 858
887 858
888 858
889 858
890 858
891 858
892 858
893 858
894 858
895 858
896 858
897 858
898 858
899 858
900 858
901 858
902 858
903 858
904 858
905 858
906 858
907 858
908 858
909 858
910 858
911 858
912 858
913 858
914 858
915 858
916 858
917 858
918 858
919 858
920 858
921 858
922 858
923 858
924 858
925 858
926 858
927 858
928 858
929 858
930 858
931 858
932 858
933 858
934 858
935 858
936 858
937 858
938 858
939 858
940 858
941 858
942 858
943 858
944 858
945 858
946 858
947 858
948 858
949 858
950 858
951 858
952 858
953 858
954 858
955 858
956 858
957 858
958 858
959 858
960 858
961 858
962 858
963 858
964 858
965 858
966 858
967 858
968 858
969 858
970 858
971 858
972 858
973 858
974 858
975 858
976 858
977 858
978 858
979 858
980 858
981 858
982 858
983 858
984 858
985 858
986 858
987 858
988 858
989 858
990 858
991 858
992 858
993 858
994 858
995 858
996 858
997 858
998 858
999 858
Best: [[15,4,3,24,29,5,30,26],
       [27,8,22,32,20,18,14],
       [21,6,11,16,23,10,12,9,19,7],
       [28,25],
       [13,2,17,31]], fitness: 858
